p cnf 28 18
-1 -2 24 0 
-3 -4 -5 -6 -7 25 0 
-8 24 0 
-9 -10 15 24 0 
-1 24 0 
-9 -1 26 0 
-11 -10 15 -12 26 0 
-10 15 -13 26 0 
-13 24 0 
-14 -15 10 27 0 
-16 -17 19 20 27 0 
-18 -19 17 20 27 0 
-20 17 19 27 0 
-18 -17 19 20 27 0 
-3 28 0 
-2 -3 28 0 
-5 -21 24 0 
-3 -13 -14 -22 -4 25 0 
